WARNING: for repeatability, setting FPU to use double precision
============================[ Problem Statistics ]=============================
|                                                                             |
|  Number of variables:          9000                                         |
|  Number of clauses:           45005                                         |
|  Parse time:                   0.01 s                                       |
|                                                                             |
c ============================[ Search Statistics ]==============================
c | Conflicts |          ORIGINAL         |          LEARNT          | Progress |
c |           |    Vars  Clauses Literals |    Limit  Clauses Lit/Cl |          |
c ===============================================================================
c Switched to VSIDS.
c Switched to LRB.
c Switched to VSIDS.
c Switched to LRB.
c Switched to VSIDS.
c Switched to LRB.
c Switched to VSIDS.
c Switched to LRB.
c Switched to VSIDS.
c Switched to LRB.
c Switched to VSIDS.
c Switched to LRB.
c Switched to VSIDS.
c Switched to LRB.
c Switched to VSIDS.
c Switched to LRB.
c Switched to VSIDS.
c Switched to LRB.
c Switched to VSIDS.
c Switched to LRB.
c Switched to VSIDS.
c Switched to LRB.
c Switched to VSIDS.
c Switched to LRB.
c Switched to VSIDS.
c Switched to LRB.
c Switched to VSIDS.
c Switched to LRB.
c Switched to VSIDS.
c Switched to LRB.
c Switched to VSIDS.
c Switched to LRB.
c ===============================================================================
restarts                  : 30529
conflicts                 : 10670001       (3002 /sec)
decisions                 : 17707022       (0.00 % random) (4981 /sec)
propagations              : 6732613940     (1893959 /sec)
conflict literals         : 706481118      (31.84 % deleted)

conflicts w/ DIP found    : 7293594        (68.36 % of conflicts)
conflicts w/ dangerous DIP: 0              (0.00 % of conflicts)
conflicts w/ DIP-learning : 122450         (1.15 % of conflicts)
decisions on ext vars     : 138530         (0.78 % of decisions)
total ext vars            : 6846        
tried delete ext vars     : 0           
deleted ext vars          : 0           
max ext vars              : 6846        

Memory used               : 404.00 MB
CPU time                  : 3554.78 s
DIP computation time      : 81.4143 s (2.29 % of total time)
ER_sel time               : 13.1311 s
ER_add time               : 0.026812 s
ER_delC time              : 0 s
ER_delV time              : 0 s
ER_sub time               : 15.7454 s
ER_stat time              : 0 s

INDETERMINATE
